c defined variables: 31 32 33 34 35 36 37 40 41 42 43 44 45 46 47 48 51 52 53 56 57 58 59 60 61 62 63 64 65 68 69 70 71 72 73 74 75 76 77 80 81 82 83 84 85 86 87 88 89 92 93 94 95 96 97 98 99 100 101 104 105 106 107 108 109 110 111 112 113 116 117 118 119 120 121 122 123 124 125 128 129 130 131 132 133 134 135 136 137 138 139 140 141 
p cnf 563 779
a 9 10 11 12 13 14 15 16 17 18 19 20 21 22 23 24 25 26 27 28 0
e 38 39 49 50 54 55 66 67 78 79 90 91 102 103 114 115 126 127 31 32 33 34 35 36 37 40 41 42 43 44 45 46 47 48 51 52 53 56 57 58 59 60 61 62 63 64 65 68 69 70 71 72 73 74 75 76 77 80 81 82 83 84 85 86 87 88 89 92 93 94 95 96 97 98 99 100 101 104 105 106 107 108 109 110 111 112 113 116 117 118 119 120 121 122 123 124 125 128 129 130 131 132 133 134 135 136 137 138 139 140 141 477 478 479 480 481 482 483 484 485 486 487 488 489 490 491 492 493 494 495 496 497 498 499 500 501 502 503 504 505 506 507 508 509 510 511 512 513 514 515 516 517 518 519 520 521 522 523 524 525 526 527 528 529 530 531 532 533 534 535 536 537 538 539 540 541 542 543 544 545 546 547 548 549 550 551 552 553 554 555 556 557 558 559 560 561 562 563 0
d 1 9 10 11 12 13 14 15 16 17 18 19 20 21 22 23 24 25 26 0
d 2 9 10 11 12 13 14 15 16 17 18 19 20 21 22 23 24 25 26 0
d 3 9 10 11 12 13 14 15 16 17 18 19 20 21 22 23 24 25 26 0
d 4 9 10 11 12 13 14 15 16 17 18 19 20 21 22 23 24 25 26 0
d 5 9 10 11 12 13 14 15 16 17 18 19 20 21 22 23 24 25 26 0
d 6 9 10 11 12 13 14 15 16 17 18 19 20 21 22 23 24 25 26 0
d 7 9 10 11 12 13 14 15 16 17 18 19 20 21 22 23 24 25 26 0
d 8 9 10 11 12 13 14 15 16 17 18 19 20 21 22 23 24 25 26 0
d 29 25 26 0
d 30 27 28 0
478 -31 0
-478 31 0
479 -32 0
-479 32 0
480 -33 0
-480 33 0
481 -34 0
-481 34 0
482 -35 0
-482 35 0
483 -36 0
-483 36 0
484 -37 0
-484 37 0
485 -40 0
-485 40 0
-477 -41 0
477 41 0
486 -42 0
-486 42 0
487 -43 0
-487 43 0
-488 -44 0
488 44 0
489 -45 0
-489 45 0
490 -46 0
-490 46 0
491 -47 0
-491 47 0
492 -48 0
-492 48 0
493 -51 0
-493 51 0
494 -52 0
-494 52 0
495 -53 0
-495 53 0
496 -56 0
-496 56 0
497 -57 0
-497 57 0
498 -58 0
-498 58 0
499 -59 0
-499 59 0
-500 -60 0
500 60 0
501 -61 0
-501 61 0
502 -62 0
-502 62 0
503 -63 0
-503 63 0
504 -64 0
-504 64 0
505 -65 0
-505 65 0
506 -68 0
-506 68 0
507 -69 0
-507 69 0
508 -70 0
-508 70 0
509 -71 0
-509 71 0
-510 -72 0
510 72 0
511 -73 0
-511 73 0
512 -74 0
-512 74 0
513 -75 0
-513 75 0
514 -76 0
-514 76 0
515 -77 0
-515 77 0
516 -80 0
-516 80 0
517 -81 0
-517 81 0
518 -82 0
-518 82 0
519 -83 0
-519 83 0
-520 -84 0
520 84 0
521 -85 0
-521 85 0
522 -86 0
-522 86 0
523 -87 0
-523 87 0
524 -88 0
-524 88 0
525 -89 0
-525 89 0
526 -92 0
-526 92 0
527 -93 0
-527 93 0
528 -94 0
-528 94 0
529 -95 0
-529 95 0
-530 -96 0
530 96 0
531 -97 0
-531 97 0
532 -98 0
-532 98 0
533 -99 0
-533 99 0
534 -100 0
-534 100 0
535 -101 0
-535 101 0
536 -104 0
-536 104 0
537 -105 0
-537 105 0
538 -106 0
-538 106 0
539 -107 0
-539 107 0
-540 -108 0
540 108 0
541 -109 0
-541 109 0
542 -110 0
-542 110 0
543 -111 0
-543 111 0
544 -112 0
-544 112 0
545 -113 0
-545 113 0
546 -116 0
-546 116 0
547 -117 0
-547 117 0
548 -118 0
-548 118 0
549 -119 0
-549 119 0
550 -120 0
-550 120 0
551 -121 0
-551 121 0
552 -122 0
-552 122 0
553 -123 0
-553 123 0
554 -124 0
-554 124 0
555 -125 0
-555 125 0
556 -128 0
-556 128 0
557 -129 0
-557 129 0
558 -130 0
-558 130 0
559 -131 0
-559 131 0
560 -132 0
-560 132 0
561 -133 0
-561 133 0
-477 -134 0
477 134 0
562 -135 0
-562 135 0
-477 -136 0
477 136 0
563 -137 0
-563 137 0
-477 -138 0
477 138 0
477 -139 0
-477 139 0
477 -140 0
-477 140 0
477 -141 0
-477 141 0
-31 -27 0
-31 25 0
31 27 -25 0
-32 27 0
-32 -25 0
32 -27 25 0
-33 -31 0
-33 -32 0
33 31 32 0
-34 -28 0
-34 26 0
34 28 -26 0
-35 28 0
-35 -26 0
35 -28 26 0
-36 -34 0
-36 -35 0
36 34 35 0
-37 33 0
-37 36 0
37 -33 -36 0
-38 30 0
-38 -29 0
38 -30 29 0
-39 -30 0
-39 29 0
39 30 -29 0
-40 -38 0
-40 -39 0
40 38 39 0
-41 37 0
-41 -40 0
41 -37 40 0
-42 -18 0
-42 -10 0
42 18 10 0
-43 18 0
-43 10 0
43 -18 -10 0
44 -42 0
44 -43 0
-44 42 43 0
-45 17 0
-45 9 0
45 -17 -9 0
-46 -44 0
-46 -45 0
46 44 45 0
-47 44 0
-47 45 0
47 -44 -45 0
-48 -46 0
-48 -47 0
48 46 47 0
-49 2 0
-49 48 0
49 -2 -48 0
-50 -2 0
-50 -48 0
50 2 48 0
-51 -49 0
-51 -50 0
51 49 50 0
-52 -17 0
-52 -9 0
52 17 9 0
-53 -45 0
-53 -52 0
53 45 52 0
-54 1 0
-54 -53 0
54 -1 53 0
-55 -1 0
-55 53 0
55 1 -53 0
-56 -54 0
-56 -55 0
56 54 55 0
-57 51 0
-57 56 0
57 -51 -56 0
-58 -19 0
-58 -11 0
58 19 11 0
-59 19 0
-59 11 0
59 -19 -11 0
60 -58 0
60 -59 0
-60 58 59 0
-61 45 0
-61 -42 0
61 -45 42 0
-62 -61 0
-62 -43 0
62 61 43 0
-63 60 0
-63 62 0
63 -60 -62 0
-64 -60 0
-64 -62 0
64 60 62 0
-65 -63 0
-65 -64 0
65 63 64 0
-66 3 0
-66 -65 0
66 -3 65 0
-67 -3 0
-67 65 0
67 3 -65 0
-68 -66 0
-68 -67 0
68 66 67 0
-69 57 0
-69 68 0
69 -57 -68 0
-70 -20 0
-70 -12 0
70 20 12 0
-71 20 0
-71 12 0
71 -20 -12 0
72 -70 0
72 -71 0
-72 70 71 0
-73 -62 0
-73 -58 0
73 62 58 0
-74 -73 0
-74 -59 0
74 73 59 0
-75 72 0
-75 74 0
75 -72 -74 0
-76 -72 0
-76 -74 0
76 72 74 0
-77 -75 0
-77 -76 0
77 75 76 0
-78 4 0
-78 -77 0
78 -4 77 0
-79 -4 0
-79 77 0
79 4 -77 0
-80 -78 0
-80 -79 0
80 78 79 0
-81 69 0
-81 80 0
81 -69 -80 0
-82 -21 0
-82 -13 0
82 21 13 0
-83 21 0
-83 13 0
83 -21 -13 0
84 -82 0
84 -83 0
-84 82 83 0
-85 -74 0
-85 -70 0
85 74 70 0
-86 -85 0
-86 -71 0
86 85 71 0
-87 84 0
-87 86 0
87 -84 -86 0
-88 -84 0
-88 -86 0
88 84 86 0
-89 -87 0
-89 -88 0
89 87 88 0
-90 5 0
-90 -89 0
90 -5 89 0
-91 -5 0
-91 89 0
91 5 -89 0
-92 -90 0
-92 -91 0
92 90 91 0
-93 81 0
-93 92 0
93 -81 -92 0
-94 -22 0
-94 -14 0
94 22 14 0
-95 22 0
-95 14 0
95 -22 -14 0
96 -94 0
96 -95 0
-96 94 95 0
-97 -86 0
-97 -82 0
97 86 82 0
-98 -97 0
-98 -83 0
98 97 83 0
-99 96 0
-99 98 0
99 -96 -98 0
-100 -96 0
-100 -98 0
100 96 98 0
-101 -99 0
-101 -100 0
101 99 100 0
-102 6 0
-102 -101 0
102 -6 101 0
-103 -6 0
-103 101 0
103 6 -101 0
-104 -102 0
-104 -103 0
104 102 103 0
-105 93 0
-105 104 0
105 -93 -104 0
-106 -23 0
-106 -15 0
106 23 15 0
-107 23 0
-107 15 0
107 -23 -15 0
108 -106 0
108 -107 0
-108 106 107 0
-109 -98 0
-109 -94 0
109 98 94 0
-110 -109 0
-110 -95 0
110 109 95 0
-111 108 0
-111 110 0
111 -108 -110 0
-112 -108 0
-112 -110 0
112 108 110 0
-113 -111 0
-113 -112 0
113 111 112 0
-114 7 0
-114 -113 0
114 -7 113 0
-115 -7 0
-115 113 0
115 7 -113 0
-116 -114 0
-116 -115 0
116 114 115 0
-117 105 0
-117 116 0
117 -105 -116 0
-118 -110 0
-118 -106 0
118 110 106 0
-119 -118 0
-119 -107 0
119 118 107 0
-120 -24 0
-120 119 0
120 24 -119 0
-121 24 0
-121 -119 0
121 -24 119 0
-122 -120 0
-122 -121 0
122 120 121 0
-123 16 0
-123 122 0
123 -16 -122 0
-124 -16 0
-124 -122 0
124 16 122 0
-125 -123 0
-125 -124 0
125 123 124 0
-126 8 0
-126 -125 0
126 -8 125 0
-127 -8 0
-127 125 0
127 8 -125 0
-128 -126 0
-128 -127 0
128 126 127 0
-129 117 0
-129 128 0
129 -117 -128 0
-130 -28 0
-130 -129 0
130 28 129 0
-131 28 0
-131 129 0
131 -28 -129 0
-132 -130 0
-132 -131 0
132 130 131 0
-133 27 0
-133 132 0
133 -27 -132 0
-134 133 0
-134 39 0
134 -133 -39 0
-135 26 0
-135 25 0
135 -26 -25 0
-136 29 0
-136 135 0
136 -29 -135 0
-137 -26 0
-137 -25 0
137 26 25 0
-138 -29 0
-138 137 0
138 29 -137 0
-139 -136 0
-139 -138 0
139 136 138 0
-140 -134 0
-140 139 0
140 134 -139 0
-141 -41 0
-141 140 0
141 41 -140 0
141 0
477 0
25 -478 0
-27 -478 0
-25 27 478 0
-25 -479 0
27 -479 0
25 -27 479 0
-31 -480 0
-32 -480 0
31 32 480 0
26 -481 0
-28 -481 0
-26 28 481 0
-26 -482 0
28 -482 0
26 -28 482 0
-34 -483 0
-35 -483 0
34 35 483 0
33 -484 0
36 -484 0
-33 -36 484 0
-38 -485 0
-39 -485 0
38 39 485 0
-10 -486 0
-18 -486 0
10 18 486 0
10 -487 0
18 -487 0
-10 -18 487 0
-42 -488 0
-43 -488 0
42 43 488 0
9 -489 0
17 -489 0
-9 -17 489 0
-44 -490 0
-45 -490 0
44 45 490 0
44 -491 0
45 -491 0
-44 -45 491 0
-46 -492 0
-47 -492 0
46 47 492 0
-49 -493 0
-50 -493 0
49 50 493 0
-9 -494 0
-17 -494 0
9 17 494 0
-45 -495 0
-52 -495 0
45 52 495 0
-54 -496 0
-55 -496 0
54 55 496 0
51 -497 0
56 -497 0
-51 -56 497 0
-11 -498 0
-19 -498 0
11 19 498 0
11 -499 0
19 -499 0
-11 -19 499 0
-58 -500 0
-59 -500 0
58 59 500 0
-42 -501 0
45 -501 0
42 -45 501 0
-43 -502 0
-61 -502 0
43 61 502 0
60 -503 0
62 -503 0
-60 -62 503 0
-60 -504 0
-62 -504 0
60 62 504 0
-63 -505 0
-64 -505 0
63 64 505 0
-66 -506 0
-67 -506 0
66 67 506 0
57 -507 0
68 -507 0
-57 -68 507 0
-12 -508 0
-20 -508 0
12 20 508 0
12 -509 0
20 -509 0
-12 -20 509 0
-70 -510 0
-71 -510 0
70 71 510 0
-58 -511 0
-62 -511 0
58 62 511 0
-59 -512 0
-73 -512 0
59 73 512 0
72 -513 0
74 -513 0
-72 -74 513 0
-72 -514 0
-74 -514 0
72 74 514 0
-75 -515 0
-76 -515 0
75 76 515 0
-78 -516 0
-79 -516 0
78 79 516 0
69 -517 0
80 -517 0
-69 -80 517 0
-13 -518 0
-21 -518 0
13 21 518 0
13 -519 0
21 -519 0
-13 -21 519 0
-82 -520 0
-83 -520 0
82 83 520 0
-70 -521 0
-74 -521 0
70 74 521 0
-71 -522 0
-85 -522 0
71 85 522 0
84 -523 0
86 -523 0
-84 -86 523 0
-84 -524 0
-86 -524 0
84 86 524 0
-87 -525 0
-88 -525 0
87 88 525 0
-90 -526 0
-91 -526 0
90 91 526 0
81 -527 0
92 -527 0
-81 -92 527 0
-14 -528 0
-22 -528 0
14 22 528 0
14 -529 0
22 -529 0
-14 -22 529 0
-94 -530 0
-95 -530 0
94 95 530 0
-82 -531 0
-86 -531 0
82 86 531 0
-83 -532 0
-97 -532 0
83 97 532 0
96 -533 0
98 -533 0
-96 -98 533 0
-96 -534 0
-98 -534 0
96 98 534 0
-99 -535 0
-100 -535 0
99 100 535 0
-102 -536 0
-103 -536 0
102 103 536 0
93 -537 0
104 -537 0
-93 -104 537 0
-15 -538 0
-23 -538 0
15 23 538 0
15 -539 0
23 -539 0
-15 -23 539 0
-106 -540 0
-107 -540 0
106 107 540 0
-94 -541 0
-98 -541 0
94 98 541 0
-95 -542 0
-109 -542 0
95 109 542 0
108 -543 0
110 -543 0
-108 -110 543 0
-108 -544 0
-110 -544 0
108 110 544 0
-111 -545 0
-112 -545 0
111 112 545 0
-114 -546 0
-115 -546 0
114 115 546 0
105 -547 0
116 -547 0
-105 -116 547 0
-106 -548 0
-110 -548 0
106 110 548 0
-107 -549 0
-118 -549 0
107 118 549 0
-24 -550 0
119 -550 0
24 -119 550 0
24 -551 0
-119 -551 0
-24 119 551 0
-120 -552 0
-121 -552 0
120 121 552 0
16 -553 0
122 -553 0
-16 -122 553 0
-16 -554 0
-122 -554 0
16 122 554 0
-123 -555 0
-124 -555 0
123 124 555 0
-126 -556 0
-127 -556 0
126 127 556 0
117 -557 0
128 -557 0
-117 -128 557 0
-28 -558 0
-129 -558 0
28 129 558 0
28 -559 0
129 -559 0
-28 -129 559 0
-130 -560 0
-131 -560 0
130 131 560 0
27 -561 0
132 -561 0
-27 -132 561 0
25 -562 0
26 -562 0
-25 -26 562 0
-25 -563 0
-26 -563 0
25 26 563 0
